0 24 1 16 29 31 18 12 25 11
22 0 1 34 50 44 42 39 21 7
46 38 0 34 36 33 48 19 48 17
18 48 26 0 29 5 31 46 2 15
43 3 14 8 0 25 32 41 23 21
8 40 30 44 14 0 45 36 19 39
11 7 16 45 36 25 0 1 21 45
35 29 47 46 45 21 27 0 2 43
45 18 21 27 39 24 19 22 0 32
4 35 31 49 43 36 2 2 29 0
